********************************************************************************
Field Output Report, written Fri Jan 29 02:26:26 2021

Source 1
---------

   ODB: D:/temp/Job-1.odb
   Step: Step-1
   Frame: Increment      1: Step Time =    1.000

Loc 1 : 来自源 1 的结点值

Output sorted by column "结点编号".

Field Output reported 在结点处 for part: PART-1-1
   Computation algorithm: EXTRAPOLATE_COMPUTE_AVERAGE
   Averaged at nodes
   Averaging regions: ODB_REGIONS

            结点           S.S11           S.S12
            标签          @Loc 1          @Loc 1
-------------------------------------------------
               1         8.11490        -4.12636
               2         8.15402     29.2001E-03
               3         5.98884         1.07803
               4         4.18099    -182.774E-03
               5         4.02063     268.882E-03
               6         3.80778    -165.978E-03
               7         4.08229     31.2340E-03
               8         4.34381    -163.725E-03
               9         4.79745    -61.8841E-03
              10         5.24466    -162.630E-03
              11         5.77703    -102.960E-03
              12         6.30183    -159.919E-03
              13         6.86586    -121.826E-03
              14         7.42164    -156.303E-03
              15         7.99578    -130.682E-03
              16         8.56259    -152.825E-03
              17         9.13831    -135.051E-03
              18         9.70841    -150.021E-03
              19         10.2832    -137.426E-03
              20         10.8540    -147.974E-03
              21         11.4275    -138.884E-03
              22         11.9985    -146.552E-03
              23         12.5711    -139.874E-03
              24         13.1421    -145.579E-03
              25         13.7142    -140.583E-03
              26         14.2852    -144.909E-03
              27         14.8570    -141.102E-03
              28         15.4282    -144.442E-03
              29         15.9998    -141.481E-03
              30         16.5711    -144.115E-03
              31         17.1426    -141.751E-03
              32         17.7140    -143.893E-03
              33         18.2854    -141.930E-03
              34         18.8568    -143.761E-03
              35         19.4282    -142.024E-03
              36         19.9997    -143.730E-03
              37         20.5711    -142.016E-03
              38         21.1428    -143.842E-03
              39         21.7140    -141.814E-03
              40         22.2858    -144.132E-03
              41         22.8559    -140.942E-03
              42         23.4262    -144.267E-03
              43         23.9892    -137.224E-03
              44         24.5480    -142.268E-03
              45         25.0781    -122.690E-03
              46         25.5913    -134.160E-03
              47         26.0121    -75.8664E-03
              48         26.4614    -149.212E-03
              49         26.6740     43.9528E-03
              50         28.8371        -1.12632
              51         31.0816        -2.67008
              52     230.503E-03        -4.18291
              53         2.42877        -1.11485
              54         4.47737         1.17756
              55         3.73013     101.295E-03
              56         3.49706     95.4821E-03
              57         3.62564    -53.1064E-03
              58         3.76902    -155.820E-03
              59         4.15008    -165.480E-03
              60         4.51014    -241.340E-03
              61         4.99492    -224.733E-03
              62         5.45880    -273.368E-03
              63         5.98702    -253.232E-03
              64         6.49738    -283.941E-03
              65         7.04113    -265.912E-03
              66         7.57056    -285.863E-03
              67         8.11782    -271.254E-03
              68         8.65431    -284.852E-03
              69         9.20088    -273.553E-03
              70         9.73979    -283.278E-03
              71         10.2848    -274.712E-03
              72         10.8246    -281.929E-03
              73         11.3682    -275.456E-03
              74         11.9084    -280.945E-03
              75         12.4512    -276.018E-03
              76         12.9917    -280.263E-03
              77         13.5339    -276.464E-03
              78         14.0746    -279.792E-03
              79         14.6165    -276.812E-03
              80         15.1574    -279.465E-03
              81         15.6991    -277.074E-03
              82         16.2402    -279.238E-03
              83         16.7818    -277.258E-03
              84         17.3229    -279.094E-03
              85         17.8644    -277.371E-03
              86         18.4057    -279.032E-03
              87         18.9470    -277.412E-03
              88         19.4886    -279.078E-03
              89         20.0297    -277.348E-03
              90         20.5715    -279.235E-03
              91         21.1120    -276.925E-03
              92         21.6539    -279.110E-03
              93         22.1911    -274.702E-03
              94         22.7297    -276.156E-03
              95         23.2528    -264.747E-03
              96         23.7741    -261.040E-03
              97         24.2480    -232.555E-03
              98         24.7296    -218.507E-03
              99         25.1174    -200.118E-03
             100         25.7641    -229.073E-03
             101         27.2215        -1.58222
             102         28.1381        -2.85838
             103        -2.28445        -3.13985
             104        -1.83095        -2.44856
             105     867.077E-03     129.440E-03
             106         2.74854     582.297E-03
             107         2.61578    -202.117E-03
             108         3.04448    -34.6136E-03
             109         3.27584    -361.352E-03
             110         3.62775    -326.623E-03
             111         4.01671    -454.586E-03
             112         4.41776    -454.450E-03
             113         4.87166    -502.531E-03
             114         5.31221    -508.437E-03
             115         5.79132    -523.497E-03
             116         6.25309    -529.075E-03
             117         6.74000    -530.914E-03
             118         7.21156    -535.564E-03
             119         7.69937    -532.744E-03
             120         8.17515    -536.786E-03
             121         8.66172    -532.831E-03
             122         9.13938    -536.451E-03
             123         9.62446    -532.647E-03
             124         10.1031    -535.875E-03
             125         10.5870    -532.581E-03
             126         11.0663    -535.407E-03
             127         11.5493    -532.648E-03
             128         12.0291    -535.079E-03
             129         12.5116    -532.780E-03
             130         12.9918    -534.853E-03
             131         13.4738    -532.921E-03
             132         13.9543    -534.696E-03
             133         14.4361    -533.042E-03
             134         14.9168    -534.590E-03
             135         15.3984    -533.133E-03
             136         15.8794    -534.530E-03
             137         16.3606    -533.194E-03
             138         16.8419    -534.523E-03
             139         17.3229    -533.238E-03
             140         17.8045    -534.548E-03
             141         18.2849    -533.188E-03
             142         18.7670    -534.229E-03
             143         19.2460    -532.245E-03
             144         19.7280    -531.175E-03
             145         20.2024    -526.235E-03
             146         20.6809    -515.398E-03
             147         21.1439    -502.638E-03
             148         21.6122    -461.963E-03
             149         22.0796    -463.722E-03
             150         22.5617    -389.574E-03
             151         23.4606    -813.280E-03
             152         23.7736        -1.88266
             153         23.4615        -2.41763
             154    -98.0839E-03        -1.95863
             155    -804.336E-03        -2.31465
             156    -790.884E-03        -1.35474
             157         1.12507     164.405E-03
             158         2.07008    -189.933E-03
             159         2.28633    -369.101E-03
             160         2.80558    -402.567E-03
             161         3.07566    -596.022E-03
             162         3.49324    -588.774E-03
             163         3.84870    -698.266E-03
             164         4.25394    -688.470E-03
             165         4.65310    -742.212E-03
             166         5.06242    -734.036E-03
             167         5.47991    -758.094E-03
             168         5.89351    -752.196E-03
             169         6.31729    -761.923E-03
             170         6.73336    -758.342E-03
             171         7.15849    -761.633E-03
             172         7.57587    -759.964E-03
             173         8.00063    -760.533E-03
             174         8.41881    -760.189E-03
             175         8.84281    -759.667E-03
             176         9.26159    -760.108E-03
             177         9.68485    -759.180E-03
             178         10.1041    -760.017E-03
             179         10.5268    -758.966E-03
             180         10.9465    -759.957E-03
             181         11.3688    -758.901E-03
             182         11.7888    -759.916E-03
             183         12.2107    -758.904E-03
             184         12.6310    -759.882E-03
             185         13.0526    -758.934E-03
             186         13.4733    -759.850E-03
             187         13.8946    -758.983E-03
             188         14.3155    -759.816E-03
             189         14.7365    -759.068E-03
             190         15.1577    -759.756E-03
             191         15.5784    -759.211E-03
             192         15.9999    -759.455E-03
             193         16.4201    -759.140E-03
             194         16.8417    -757.609E-03
             195         17.2616    -756.770E-03
             196         17.6829    -748.466E-03
             197         18.1055    -743.747E-03
             198         18.5262    -716.109E-03
             199         18.9731    -706.215E-03
             200         19.4032    -668.051E-03
             201         19.9980    -723.972E-03
             202         20.5267        -1.19261
             203         20.3466        -1.56925
             204         20.0315        -1.59760
             205    -761.996E-03        -1.52167
             206    -790.103E-03        -1.95331
             207    -675.206E-03        -1.78238
             208     77.0029E-03    -739.546E-03
             209         1.25592    -349.813E-03
             210         1.79913    -588.313E-03
             211         2.17046    -628.818E-03
             212         2.60965    -724.514E-03
             213         2.90851    -818.298E-03
             214         3.29803    -841.460E-03
             215         3.62033    -908.831E-03
             216         3.99098    -906.944E-03
             217         4.33477    -945.697E-03
             218         4.69838    -937.115E-03
             219         5.05363    -957.490E-03
             220         5.41445    -949.018E-03
             221         5.77475    -959.368E-03
             222         6.13442    -953.055E-03
             223         6.49661    -958.289E-03
             224         6.85587    -954.245E-03
             225         7.21854    -956.888E-03
             226         7.57777    -954.591E-03
             227         7.94038    -955.873E-03
             228         8.29976    -954.744E-03
             229         8.66213    -955.272E-03
             230         9.02174    -954.859E-03
             231         9.38382    -954.954E-03
             232         9.74369    -954.953E-03
             233         10.1055    -954.799E-03
             234         10.4656    -955.016E-03
             235         10.8272    -954.734E-03
             236         11.1875    -955.046E-03
             237         11.5489    -954.728E-03
             238         11.9094    -955.037E-03
             239         12.2705    -954.783E-03
             240         12.6313    -954.976E-03
             241         12.9922    -954.925E-03
             242         13.3530    -954.778E-03
             243         13.7139    -955.091E-03
             244         14.0747    -953.961E-03
             245         14.4363    -954.444E-03
             246         14.7972    -950.288E-03
             247         15.1635    -948.811E-03
             248         15.5279    -936.824E-03
             249         15.9146    -926.807E-03
             250         16.3000    -911.631E-03
             251         16.7441    -899.819E-03
             252         17.2210        -1.02807
             253         17.4804        -1.28235
             254         17.2007        -1.24962
             255         16.8768        -1.07562
             256    -8.51083E-03        -1.14149
             257    -448.155E-03        -1.71508
             258    -735.466E-03        -1.93302
             259    -191.914E-03        -1.23792
             260     555.290E-03    -813.348E-03
             261         1.25828    -748.899E-03
             262         1.67549    -861.980E-03
             263         2.04360    -895.254E-03
             264         2.40032    -975.306E-03
             265         2.68996        -1.02397
             266         3.02030        -1.05276
             267         3.30330        -1.08970
             268         3.61913        -1.09288
             269         3.90814        -1.11611
             270         4.21604        -1.11018
             271         4.51069        -1.12395
             272         4.81442        -1.11654
             273         5.11262        -1.12474
             274         5.41423        -1.11856
             275         5.71435        -1.12361
             276         6.01493        -1.11920
             277         6.31598        -1.12238
             278         6.61611        -1.11948
             279         6.91753        -1.12151
             280         7.21752        -1.11970
             281         7.51903        -1.12097
             282         7.81903        -1.11990
             283         8.12049        -1.12066
             284         8.42058        -1.12005
             285         8.72192        -1.12049
             286         9.02214        -1.12015
             287         9.32335        -1.12041
             288         9.62369        -1.12020
             289         9.92479        -1.12039
             290         10.2252        -1.12019
             291         10.5262        -1.12045
             292         10.8266        -1.12010
             293         11.1277        -1.12057
             294         11.4279        -1.11983
             295         11.7296        -1.12047
             296         12.0299        -1.11886
             297         12.3348        -1.11880
             298         12.6387        -1.11538
             299         12.9563        -1.11131
             300         13.2801        -1.10751
             301         13.6319        -1.09955
             302         14.0136        -1.12484
             303         14.3603        -1.21477
             304         14.4758        -1.28308
             305         14.1750    -958.590E-03
             306         13.9168    -633.508E-03
             307    -344.543E-03    -961.093E-03
             308    -381.417E-03        -1.48032
             309    -553.967E-03        -1.93869
             310    -413.307E-03        -1.57339
             311     189.789E-03        -1.15377
             312     730.872E-03        -1.02988
             313         1.19781        -1.02364
             314         1.53688        -1.08683
             315         1.84567        -1.11670
             316         2.13089        -1.16991
             317         2.38084        -1.19697
             318         2.64543        -1.21934
             319         2.87986        -1.23831
             320         3.13352        -1.24212
             321         3.36652        -1.25453
             322         3.61403        -1.25078
             323         3.84911        -1.25903
             324         4.09324        -1.25350
             325         4.33059        -1.25922
             326         4.57287        -1.25422
             327         4.81187        -1.25832
             328         5.05313        -1.25446
             329         5.29314        -1.25744
             330         5.53386        -1.25465
             331         5.77441        -1.25680
             332         6.01484        -1.25486
             333         6.25566        -1.25639
             334         6.49597        -1.25506
             335         6.73687        -1.25614
             336         6.97715        -1.25522
             337         7.21807        -1.25599
             338         7.45835        -1.25532
             339         7.69926        -1.25591
             340         7.93953        -1.25537
             341         8.18045        -1.25589
             342         8.42065        -1.25537
             343         8.66166        -1.25589
             344         8.90166        -1.25532
             345         9.14303        -1.25587
             346         9.38296        -1.25525
             347         9.62589        -1.25569
             348         9.86794        -1.25544
             349         10.1175        -1.25549
             350         10.3723        -1.25741
             351         10.6441        -1.25925
             352         10.9360        -1.26962
             353         11.2400        -1.29769
             354         11.4791        -1.33475
             355         11.5120        -1.23729
             356         11.2533    -724.608E-03
             357         11.0436    -323.059E-03
             358     10.9591E-03    -797.276E-03
             359    -250.641E-03        -1.32839
             360    -506.766E-03        -1.87576
             361    -433.198E-03        -1.74395
             362    -121.713E-03        -1.43988
             363     351.524E-03        -1.25145
             364     724.800E-03        -1.22178
             365         1.05561        -1.22398
             366         1.31625        -1.26403
             367         1.55333        -1.28390
             368         1.76942        -1.31592
             369         1.96388        -1.32994
             370         2.16198        -1.34398
             371         2.34101        -1.35275
             372         2.53080        -1.35535
             373         2.70614        -1.36133
             374         2.89181        -1.35892
             375         3.06762        -1.36351
             376         3.25112        -1.35969
             377         3.42837        -1.36345
             378         3.61063        -1.35977
             379         3.78917        -1.36287
             380         3.97065        -1.35982
             381         4.15010        -1.36232
             382         4.33108        -1.35994
             383         4.51108        -1.36191
             384         4.69174        -1.36011
             385         4.87206        -1.36164
             386         5.05253        -1.36027
             387         5.23301        -1.36145
             388         5.41337        -1.36041
             389         5.59395        -1.36133
             390         5.77423        -1.36050
             391         5.95488        -1.36124
             392         6.13505        -1.36056
             393         6.31581        -1.36118
             394         6.49582        -1.36059
             395         6.67676        -1.36110
             396         6.85663        -1.36070
             397         7.03820        -1.36119
             398         7.21891        -1.36155
             399         7.40338        -1.36284
             400         7.59016        -1.36626
             401         7.78653        -1.37222
             402         7.99468        -1.38440
             403         8.22005        -1.40310
             404         8.44188        -1.42714
             405         8.59691        -1.40232
             406         8.59536        -1.18540
             407         8.39126    -545.056E-03
             408         8.24180    -86.0497E-03
             409    -189.251E-03    -705.774E-03
             410    -220.051E-03        -1.18438
             411    -412.470E-03        -1.79588
             412    -490.429E-03        -1.82122
             413    -289.386E-03        -1.61925
             414    -482.440E-06        -1.45276
             415     327.482E-03        -1.37144
             416     579.495E-03        -1.36547
             417     806.688E-03        -1.36670
             418     987.925E-03        -1.39021
             419         1.15141        -1.39952
             420         1.29808        -1.41684
             421         1.43049        -1.42237
             422         1.56258        -1.42991
             423         1.68261        -1.43308
             424         1.80880        -1.43440
             425         1.92536        -1.43691
             426         2.04914        -1.43536
             427         2.16569        -1.43782
             428         2.28832        -1.43531
             429         2.40584        -1.43775
             430         2.52777        -1.43518
             431         2.64624        -1.43744
             432         2.76765        -1.43516
             433         2.88684        -1.43715
             434         3.00786        -1.43524
             435         3.12753        -1.43692
             436         3.24825        -1.43536
             437         3.36822        -1.43675
             438         3.48874        -1.43549
             439         3.60890        -1.43662
             440         3.72926        -1.43559
             441         3.84956        -1.43651
             442         3.96979        -1.43568
             443         4.09021        -1.43641
             444         4.21030        -1.43574
             445         4.33084        -1.43630
             446         4.45079        -1.43584
             447         4.57157        -1.43629
             448         4.69169        -1.43644
             449         4.81347        -1.43756
             450         4.93572        -1.44019
             451         5.06230        -1.44560
             452         5.19396        -1.45689
             453         5.33640        -1.47502
             454         5.48777        -1.50085
             455         5.63173        -1.51228
             456         5.72406        -1.44085
             457         5.71118        -1.13963
             458         5.57309    -419.745E-03
             459         5.47196     68.0052E-03
             460     6.63722E-03    -616.314E-03
             461    -168.310E-03        -1.07978
             462    -389.655E-03        -1.69336
             463    -494.390E-03        -1.83266
             464    -455.416E-03        -1.72750
             465    -261.085E-03        -1.58640
             466    -57.5067E-03        -1.50332
             467     148.238E-03        -1.46270
             468     301.169E-03        -1.45933
             469     436.652E-03        -1.45610
             470     539.814E-03        -1.46684
             471     630.233E-03        -1.46815
             472     707.846E-03        -1.47601
             473     776.230E-03        -1.47654
             474     843.349E-03        -1.48001
             475     903.005E-03        -1.48039
             476     966.465E-03        -1.48095
             477         1.02369        -1.48180
             478         1.08599        -1.48085
             479         1.14322        -1.48218
             480         1.20507        -1.48060
             481         1.26296        -1.48219
             482         1.32448        -1.48046
             483         1.38305        -1.48210
             484         1.44426        -1.48044
             485         1.50336        -1.48199
             486         1.56427        -1.48049
             487         1.62375        -1.48187
             488         1.68440        -1.48057
             489         1.74414        -1.48177
             490         1.80460        -1.48066
             491         1.86452        -1.48167
             492         1.92483        -1.48075
             493         1.98489        -1.48158
             494         2.04507        -1.48082
             495         2.10523        -1.48146
             496         2.16529        -1.48089
             497         2.22557        -1.48135
             498         2.28558        -1.48117
             499         2.34612        -1.48189
             500         2.40656        -1.48322
             501         2.46838        -1.48656
             502         2.53141        -1.49403
             503         2.59833        -1.50775
             504         2.66994        -1.53120
             505         2.74627        -1.55852
             506         2.81655        -1.56173
             507         2.85958        -1.45906
             508         2.84990        -1.11015
             509         2.78043    -345.435E-03
             510         2.73292     163.216E-03
             511    -123.490E-03    -556.404E-03
             512    -160.248E-03    -975.331E-03
             513    -356.067E-03        -1.58942
             514    -535.147E-03        -1.79449
             515    -568.651E-03        -1.76860
             516    -512.290E-03        -1.67042
             517    -385.512E-03        -1.58466
             518    -276.783E-03        -1.53841
             519    -175.670E-03        -1.51081
             520    -112.311E-03        -1.50391
             521    -61.9582E-03        -1.49590
             522    -34.3828E-03        -1.49800
             523    -15.2538E-03        -1.49461
             524    -5.21740E-03        -1.49712
             525    -683.211E-06        -1.49529
             526     2.77856E-03        -1.49666
             527     1.85996E-03        -1.49595
             528     3.48326E-03        -1.49623
             529     1.18085E-03        -1.49640
             530     2.47988E-03        -1.49591
             531     267.446E-06        -1.49666
             532     1.51005E-03        -1.49572
             533    -235.341E-06        -1.49679
             534     888.303E-06        -1.49564
             535    -391.871E-06        -1.49683
             536     538.409E-06        -1.49563
             537    -371.754E-06        -1.49682
             538     344.321E-06        -1.49567
             539    -291.914E-06        -1.49677
             540     229.895E-06        -1.49572
             541    -208.512E-06        -1.49671
             542     156.030E-06        -1.49578
             543    -140.518E-06        -1.49664
             544     104.576E-06        -1.49584
             545    -89.5262E-06        -1.49655
             546     66.6082E-06        -1.49590
             547    -50.9620E-06        -1.49642
             548     36.4184E-06        -1.49601
             549    -18.5072E-06        -1.49650
             550     8.85129E-06        -1.49685
             551     12.9640E-06        -1.49848
             552    -21.9345E-06        -1.50220
             553     45.7764E-06        -1.50994
             554    -64.9989E-06        -1.52524
             555     74.2972E-06        -1.54958
             556    -135.452E-06        -1.57822
             557     90.4202E-06        -1.57728
             558    -227.273E-06        -1.46488
             559     127.643E-06        -1.09965
             560    -286.400E-06    -321.000E-03
             561    -1.62244E-03     189.359E-03
             562    -5.51315E-03    -493.066E-03
             563    -143.113E-03    -887.046E-03
             564    -360.999E-03        -1.47074
             565    -562.118E-03        -1.72322
             566    -694.550E-03        -1.75674
             567    -719.438E-03        -1.69816
             568    -705.434E-03        -1.62717
             569    -665.296E-03        -1.57049
             570    -649.276E-03        -1.53717
             571    -642.604E-03        -1.51268
             572    -663.056E-03        -1.50199
             573    -692.385E-03        -1.49112
             574    -737.129E-03        -1.48861
             575    -786.674E-03        -1.48340
             576    -842.150E-03        -1.48349
             577    -900.431E-03        -1.48106
             578    -959.319E-03        -1.48163
             579        -1.02058        -1.48073
             580        -1.08005        -1.48102
             581        -1.14194        -1.48098
             582        -1.20129        -1.48082
             583        -1.26304        -1.48129
             584        -1.32227        -1.48076
             585        -1.38371        -1.48149
             586        -1.44296        -1.48074
             587        -1.50410        -1.48160
             588        -1.56347        -1.48074
             589        -1.62437        -1.48163
             590        -1.68388        -1.48075
             591        -1.74460        -1.48163
             592        -1.80426        -1.48077
             593        -1.86484        -1.48160
             594        -1.92460        -1.48081
             595        -1.98509        -1.48154
             596        -2.04491        -1.48084
             597        -2.10536        -1.48145
             598        -2.16520        -1.48089
             599        -2.22563        -1.48136
             600        -2.28554        -1.48116
             601        -2.34613        -1.48190
             602        -2.40657        -1.48321
             603        -2.46832        -1.48658
             604        -2.53149        -1.49402
             605        -2.59821        -1.50775
             606        -2.67012        -1.53119
             607        -2.74611        -1.55850
             608        -2.81690        -1.56172
             609        -2.85938        -1.45903
             610        -2.85043        -1.11017
             611        -2.78009    -345.431E-03
             612        -2.72993     164.080E-03
             613    -95.9980E-03    -441.376E-03
             614    -147.791E-03    -793.240E-03
             615    -363.516E-03        -1.34784
             616    -614.879E-03        -1.61978
             617    -801.377E-03        -1.70082
             618    -927.493E-03        -1.67846
             619    -991.880E-03        -1.62179
             620        -1.04851        -1.56751
             621        -1.09915        -1.52294
             622        -1.17190        -1.49378
             623        -1.25221        -1.47059
             624        -1.35105        -1.45836
             625        -1.45475        -1.44721
             626        -1.56817        -1.44328
             627        -1.68354        -1.43823
             628        -1.80246        -1.43770
             629        -1.92239        -1.43560
             630        -2.04256        -1.43604
             631        -2.16387        -1.43532
             632        -2.28393        -1.43571
             633        -2.40545        -1.43566
             634        -2.52522        -1.43571
             635        -2.64663        -1.43601
             636        -2.76622        -1.43574
             637        -2.88745        -1.43624
             638        -3.00703        -1.43575
             639        -3.12809        -1.43636
             640        -3.24774        -1.43574
             641        -3.36865        -1.43641
             642        -3.48841        -1.43574
             643        -3.60920        -1.43643
             644        -3.72904        -1.43574
             645        -3.84976        -1.43642
             646        -3.96965        -1.43574
             647        -4.09034        -1.43639
             648        -4.21021        -1.43575
             649        -4.33091        -1.43631
             650        -4.45074        -1.43582
             651        -4.57160        -1.43632
             652        -4.69168        -1.43640
             653        -4.81345        -1.43759
             654        -4.93576        -1.44016
             655        -5.06222        -1.44562
             656        -5.19407        -1.45687
             657        -5.33626        -1.47500
             658        -5.48802        -1.50083
             659        -5.63156        -1.51221
             660        -5.72450        -1.44085
             661        -5.71094        -1.13959
             662        -5.57367    -419.828E-03
             663        -5.47501     66.1730E-03
             664    -20.8733E-03    -383.656E-03
             665    -147.786E-03    -703.196E-03
             666    -387.524E-03        -1.21010
             667    -663.845E-03        -1.49375
             668    -920.232E-03        -1.60532
             669        -1.11459        -1.61379
             670        -1.27540        -1.57376
             671        -1.40789        -1.52107
             672        -1.54665        -1.47460
             673        -1.68615        -1.43607
             674        -1.84227        -1.41002
             675        -2.00239        -1.38951
             676        -2.17399        -1.37836
             677        -2.34702        -1.36894
             678        -2.52569        -1.36552
             679        -2.70438        -1.36164
             680        -2.88506        -1.36135
             681        -3.06571        -1.35990
             682        -3.24645        -1.36044
             683        -3.42762        -1.35998
             684        -3.60798        -1.36045
             685        -3.78922        -1.36041
             686        -3.96927        -1.36059
             687        -4.15045        -1.36076
             688        -4.33036        -1.36066
             689        -4.51146        -1.36098
             690        -4.69135        -1.36067
             691        -4.87236        -1.36109
             692        -5.05230        -1.36065
             693        -5.23322        -1.36115
             694        -5.41323        -1.36063
             695        -5.59409        -1.36118
             696        -5.77414        -1.36060
             697        -5.95497        -1.36120
             698        -6.13500        -1.36057
             699        -6.31586        -1.36120
             700        -6.49578        -1.36055
             701        -6.67678        -1.36116
             702        -6.85662        -1.36063
             703        -7.03820        -1.36126
             704        -7.21892        -1.36149
             705        -7.40334        -1.36290
             706        -7.59021        -1.36621
             707        -7.78644        -1.37223
             708        -7.99481        -1.38436
             709        -8.21990        -1.40304
             710        -8.44219        -1.42710
             711        -8.59673        -1.40222
             712        -8.59588        -1.18546
             713        -8.39094    -545.040E-03
             714        -8.23923    -83.4505E-03
             715    -87.3286E-03    -328.989E-03
             716    -159.568E-03    -604.163E-03
             717    -409.817E-03        -1.06419
             718    -727.399E-03        -1.34267
             719        -1.02973        -1.47710
             720        -1.30426        -1.50750
             721        -1.54024        -1.48172
             722        -1.76499        -1.43443
             723        -1.97860        -1.38511
             724        -2.20086        -1.34462
             725        -2.42338        -1.31220
             726        -2.65603        -1.29090
             727        -2.88891        -1.27478
             728        -3.12800        -1.26642
             729        -3.36618        -1.25965
             730        -3.60738        -1.25754
             731        -3.84756        -1.25503
             732        -4.08888        -1.25521
             733        -4.32969        -1.25436
             734        -4.57060        -1.25501
             735        -4.81159        -1.25474
             736        -5.05211        -1.25525
             737        -5.29316        -1.25519
             738        -5.53345        -1.25543
             739        -5.77451        -1.25550
             740        -6.01470        -1.25550
             741        -6.25574        -1.25567
             742        -6.49592        -1.25550
             743        -6.73692        -1.25576
             744        -6.97714        -1.25547
             745        -7.21809        -1.25582
             746        -7.45835        -1.25543
             747        -7.69926        -1.25587
             748        -7.93954        -1.25538
             749        -8.18044        -1.25593
             750        -8.42066        -1.25531
             751        -8.66165        -1.25599
             752        -8.90166        -1.25521
             753        -9.14302        -1.25599
             754        -9.38296        -1.25514
             755        -9.62587        -1.25580
             756        -9.86795        -1.25533
             757        -10.1175        -1.25556
             758        -10.3724        -1.25733
             759        -10.6440        -1.25924
             760        -10.9361        -1.26956
             761        -11.2399        -1.29756
             762        -11.4795        -1.33474
             763        -11.5118        -1.23719
             764        -11.2539    -724.791E-03
             765        -11.0460    -326.770E-03
             766    -37.7692E-03    -266.845E-03
             767    -167.319E-03    -502.866E-03
             768    -441.610E-03    -903.194E-03
             769    -785.244E-03        -1.17308
             770        -1.14371        -1.31624
             771        -1.48117        -1.36241
             772        -1.80450        -1.34711
             773        -2.10874        -1.30459
             774        -2.41109        -1.25693
             775        -2.70671        -1.21391
             776        -3.00724        -1.18134
             777        -3.30481        -1.15669
             778        -3.60692        -1.14147
             779        -3.90647        -1.13044
             780        -4.20891        -1.12530
             781        -4.50924        -1.12115
             782        -4.81119        -1.12034
             783        -5.11178        -1.11896
             784        -5.41314        -1.11951
             785        -5.71389        -1.11904
             786        -6.01480        -1.11975
             787        -6.31567        -1.11954
             788        -6.61631        -1.12005
             789        -6.91729        -1.11993
             790        -7.21779        -1.12022
             791        -7.51882        -1.12017
             792        -7.81927        -1.12027
             793        -8.12031        -1.12029
             794        -8.42077        -1.12026
             795        -8.72178        -1.12036
             796        -9.02228        -1.12022
             797        -9.32324        -1.12042
             798        -9.62379        -1.12016
             799        -9.92470        -1.12049
             800        -10.2253        -1.12008
             801        -10.5262        -1.12060
             802        -10.8267        -1.11995
             803        -11.1277        -1.12074
             804        -11.4279        -1.11966
             805        -11.7296        -1.12066
             806        -12.0299        -1.11868
             807        -12.3348        -1.11896
             808        -12.6386        -1.11523
             809        -12.9563        -1.11141
             810        -13.2801        -1.10742
             811        -13.6318        -1.09950
             812        -14.0138        -1.12476
             813        -14.3601        -1.21456
             814        -14.4763        -1.28318
             815        -14.1747    -958.548E-03
             816        -13.9152    -629.135E-03
             817    -86.2852E-03    -204.508E-03
             818    -179.077E-03    -391.991E-03
             819    -465.459E-03    -733.749E-03
             820    -842.556E-03    -982.146E-03
             821        -1.24548        -1.12651
             822        -1.65691        -1.17767
             823        -2.05817        -1.16959
             824        -2.45386        -1.13211
             825        -2.83655        -1.08692
             826        -3.21621        -1.04624
             827        -3.58705        -1.01336
             828        -3.95771    -990.523E-03
             829        -4.32248    -974.214E-03
             830        -4.68819    -965.036E-03
             831        -5.05006    -958.564E-03
             832        -5.41314    -956.160E-03
             833        -5.77390    -953.987E-03
             834        -6.13569    -954.111E-03
             835        -6.49623    -953.415E-03
             836        -6.85743    -954.159E-03
             837        -7.21810    -953.845E-03
             838        -7.57901    -954.548E-03
             839        -7.93986    -954.300E-03
             840        -8.30064    -954.814E-03
             841        -8.66163    -954.589E-03
             842        -9.02234    -954.928E-03
             843        -9.38340    -954.742E-03
             844        -9.74410    -954.951E-03
             845        -10.1052    -954.820E-03
             846        -10.4659    -954.933E-03
             847        -10.8269    -954.868E-03
             848        -11.1877    -954.897E-03
             849        -11.5487    -954.917E-03
             850        -11.9096    -954.844E-03
             851        -12.2704    -955.001E-03
             852        -12.6314    -954.757E-03
             853        -12.9921    -955.160E-03
             854        -13.3531    -954.544E-03
             855        -13.7139    -955.337E-03
             856        -14.0747    -953.720E-03
             857        -14.4363    -954.692E-03
             858        -14.7971    -950.051E-03
             859        -15.1636    -949.029E-03
             860        -15.5278    -936.619E-03
             861        -15.9146    -926.910E-03
             862        -16.2999    -911.518E-03
             863        -16.7441    -899.637E-03
             864        -17.2212        -1.02799
             865        -17.4803        -1.28211
             866        -17.2014        -1.24995
             867        -16.8780        -1.08138
             868    -51.2739E-03    -135.914E-03
             869    -181.409E-03    -280.327E-03
             870    -479.900E-03    -552.971E-03
             871    -880.070E-03    -774.302E-03
             872        -1.33789    -903.977E-03
             873        -1.82064    -953.141E-03
             874        -2.31263    -947.468E-03
             875        -2.79457    -915.448E-03
             876        -3.26743    -875.795E-03
             877        -3.72409    -839.229E-03
             878        -4.17267    -810.644E-03
             879        -4.60942    -789.563E-03
             880        -5.04251    -776.217E-03
             881        -5.46862    -767.141E-03
             882        -5.89411    -762.763E-03
             883        -6.31586    -759.560E-03
             884        -6.73827    -758.993E-03
             885        -7.15877    -757.968E-03
             886        -7.58013    -758.598E-03
             887        -8.00057    -758.164E-03
             888        -8.42163    -758.973E-03
             889        -8.84231    -758.621E-03
             890        -9.26329    -759.315E-03
             891        -9.68421    -758.950E-03
             892        -10.1051    -759.492E-03
             893        -10.5262    -759.130E-03
             894        -10.9471    -759.552E-03
             895        -11.3683    -759.218E-03
             896        -11.7892    -759.555E-03
             897        -12.2103    -759.260E-03
             898        -12.6313    -759.541E-03
             899        -13.0524    -759.284E-03
             900        -13.4735    -759.525E-03
             901        -13.8944    -759.312E-03
             902        -14.3156    -759.508E-03
             903        -14.7364    -759.376E-03
             904        -15.1578    -759.463E-03
             905        -15.5783    -759.503E-03
             906        -15.9999    -759.174E-03
             907        -16.4201    -759.426E-03
             908        -16.8417    -757.329E-03
             909        -17.2617    -757.059E-03
             910        -17.6828    -748.175E-03
             911        -18.1056    -744.023E-03
             912        -18.5260    -715.818E-03
             913        -18.9734    -706.367E-03
             914        -19.4029    -667.882E-03
             915        -19.9981    -723.544E-03
             916        -20.5270        -1.19271
             917        -20.3464        -1.56909
             918        -20.0319        -1.59122
             919    -73.2281E-03    -73.5220E-03
             920    -168.887E-03    -167.551E-03
             921    -461.990E-03    -369.942E-03
             922    -888.779E-03    -543.849E-03
             923        -1.40660    -646.631E-03
             924        -1.97832    -683.251E-03
             925        -2.56309    -678.997E-03
             926        -3.14240    -653.283E-03
             927        -3.70055    -622.473E-03
             928        -4.24071    -594.122E-03
             929        -4.75999    -571.832E-03
             930        -5.26754    -556.214E-03
             931        -5.76258    -545.513E-03
             932        -6.25301    -539.561E-03
             933        -6.73729    -535.468E-03
             934        -7.22085    -534.190E-03
             935        -7.70163    -532.777E-03
             936        -8.18308    -533.206E-03
             937        -8.66327    -532.587E-03
             938        -9.14430    -533.437E-03
             939        -9.62476    -532.945E-03
             940        -10.1058    -533.781E-03
             941        -10.5866    -533.266E-03
             942        -11.0677    -533.986E-03
             943        -11.5488    -533.458E-03
             944        -12.0299    -534.067E-03
             945        -12.5111    -533.558E-03
             946        -12.9922    -534.081E-03
             947        -13.4735    -533.604E-03
             948        -13.9546    -534.075E-03
             949        -14.4358    -533.620E-03
             950        -14.9170    -534.075E-03
             951        -15.3982    -533.616E-03
             952        -15.8795    -534.098E-03
             953        -16.3605    -533.598E-03
             954        -16.8420    -534.159E-03
             955        -17.3228    -533.577E-03
             956        -17.8046    -534.240E-03
             957        -18.2849    -533.479E-03
             958        -18.7671    -533.961E-03
             959        -19.2460    -532.508E-03
             960        -19.7279    -530.919E-03
             961        -20.2025    -526.499E-03
             962        -20.6808    -515.108E-03
             963        -21.1441    -502.937E-03
             964        -21.6119    -461.571E-03
             965        -22.0800    -464.014E-03
             966        -22.5608    -389.142E-03
             967        -23.4610    -812.565E-03
             968        -23.7745        -1.88337
             969        -23.4600        -2.42615
             970    -26.0744E-03    -23.9090E-03
             971    -117.702E-03    -73.8260E-03
             972    -384.567E-03    -183.671E-03
             973    -844.425E-03    -286.811E-03
             974        -1.44891    -342.534E-03
             975        -2.12484    -363.544E-03
             976        -2.81941    -359.034E-03
             977        -3.49670    -344.962E-03
             978        -4.14668    -326.720E-03
             979        -4.76401    -311.141E-03
             980        -5.35703    -298.648E-03
             981        -5.92854    -289.880E-03
             982        -6.48820    -284.483E-03
             983        -7.03762    -280.673E-03
             984        -7.58339    -279.323E-03
             985        -8.12503    -277.738E-03
             986        -8.66652    -278.087E-03
             987        -9.20646    -277.211E-03
             988        -9.74723    -278.098E-03
             989        -10.2873    -277.354E-03
             990        -10.8283    -278.322E-03
             991        -11.3689    -277.573E-03
             992        -11.9101    -278.473E-03
             993        -12.4511    -277.733E-03
             994        -12.9924    -278.528E-03
             995        -13.5336    -277.832E-03
             996        -14.0749    -278.527E-03
             997        -14.6163    -277.891E-03
             998        -15.1576    -278.507E-03
             999        -15.6990    -277.923E-03
            1000        -16.2403    -278.493E-03
            1001        -16.7816    -277.927E-03
            1002        -17.3230    -278.508E-03
            1003        -17.8643    -277.896E-03
            1004        -18.4057    -278.573E-03
            1005        -18.9470    -277.818E-03
            1006        -19.4886    -278.728E-03
            1007        -20.0297    -277.650E-03
            1008        -20.5715    -278.983E-03
            1009        -21.1120    -277.135E-03
            1010        -21.6538    -278.947E-03
            1011        -22.1912    -274.830E-03
            1012        -22.7297    -276.060E-03
            1013        -23.2528    -264.821E-03
            1014        -23.7740    -260.955E-03
            1015        -24.2482    -232.649E-03
            1016        -24.7291    -218.262E-03
            1017        -25.1178    -200.412E-03
            1018        -25.7622    -228.179E-03
            1019        -27.2226        -1.58134
            1020        -28.1449        -2.84795
            1021    -21.7442E-03    -7.26740E-03
            1022    -77.8472E-03    -31.5057E-03
            1023    -326.016E-03    -92.7227E-03
            1024    -807.081E-03    -147.659E-03
            1025        -1.46117    -179.648E-03
            1026        -2.19725    -188.273E-03
            1027        -2.94771    -187.236E-03
            1028        -3.67829    -177.900E-03
            1029        -4.37157    -169.017E-03
            1030        -5.02986    -159.950E-03
            1031        -5.65634    -153.558E-03
            1032        -6.26180    -148.984E-03
            1033        -6.85079    -145.774E-03
            1034        -7.43161    -144.448E-03
            1035        -8.00577    -142.885E-03
            1036        -8.57817    -143.143E-03
            1037        -9.14826    -142.136E-03
            1038        -9.71884    -143.003E-03
            1039        -10.2886    -142.099E-03
            1040        -10.8593    -143.128E-03
            1041        -11.4297    -142.221E-03
            1042        -12.0008    -143.231E-03
            1043        -12.5716    -142.342E-03
            1044        -13.1429    -143.264E-03
            1045        -13.7141    -142.434E-03
            1046        -14.2855    -143.248E-03
            1047        -14.8568    -142.502E-03
            1048        -15.4283    -143.212E-03
            1049        -15.9997    -142.550E-03
            1050        -16.5711    -143.181E-03
            1051        -17.1425    -142.575E-03
            1052        -17.7139    -143.172E-03
            1053        -18.2854    -142.567E-03
            1054        -18.8568    -143.206E-03
            1055        -19.4282    -142.510E-03
            1056        -19.9997    -143.313E-03
            1057        -20.5711    -142.370E-03
            1058        -21.1427    -143.553E-03
            1059        -21.7141    -142.042E-03
            1060        -22.2858    -143.967E-03
            1061        -22.8560    -141.044E-03
            1062        -23.4261    -144.231E-03
            1063        -23.9893    -137.197E-03
            1064        -24.5479    -142.355E-03
            1065        -25.0782    -122.548E-03
            1066        -25.5912    -134.312E-03
            1067        -26.0122    -75.7263E-03
            1068        -26.4607    -149.086E-03
            1069        -26.6745     43.3613E-03
            1070        -28.8311        -1.12254
            1071        -31.0681        -2.67578


            最小        -31.0681        -4.18291
          在结点            1071              52

            最大         31.0816         1.17756
          在结点              51              54

              总         15.9698    -1.03148E+03


